50
12890

35 905
376 408
435 379
767 535
462 718
816 225
713 376
976 572
477 969
543 267
951 9
879 908
767 995
325 9
831 16
500 906
746 68
856 502
963 33
82 318
89 364
317 688
730 621
451 447
948 72
590 872
533 626
188 559
651 553
640 877
227 541
882 712
90 992
609 642
995 25
751 777
239 439
961 476
527 191
911 617
208 514
513 195
86 660
421 499
812 612
208 374
662 981
723 192
285 539
612 689
